c *********************************
c * Circuit generated by BenCGen
c *
c * CarryLookahead_18_18_18_InOutT
c *
c * Ports with 1 gate(s): 2
c * Ports with 2 gate(s): 74
c * Ports with 3 gate(s): 18
c * Ports with 4 gate(s): 17
c * Ports with 5 gate(s): 16
c * Ports with 6 gate(s): 15
c * Ports with 7 gate(s): 14
c * Ports with 8 gate(s): 13
c * Ports with 9 gate(s): 12
c * Ports with 10 gate(s): 11
c * Ports with 11 gate(s): 10
c * Ports with 12 gate(s): 9
c * Ports with 13 gate(s): 8
c * Ports with 14 gate(s): 7
c * Ports with 15 gate(s): 6
c * Ports with 16 gate(s): 5
c * Ports with 17 gate(s): 4
c * Ports with 18 gate(s): 3
c * Ports with 19 gate(s): 2
c * Total gates: 246
c *********************************
p cnf 282 1894
1 57 0
-1 -57 0
1 -56 0
57 -56 0
-1 -57 56 0
1 19 -58 0
-1 19 58 0
1 -19 58 0
-1 -19 -58 0
1 -76 0
19 -76 0
-1 -19 76 0
2 20 -59 0
-2 20 59 0
2 -20 59 0
-2 -20 -59 0
2 -77 0
20 -77 0
-2 -20 77 0
3 21 -60 0
-3 21 60 0
3 -21 60 0
-3 -21 -60 0
3 -78 0
21 -78 0
-3 -21 78 0
4 22 -61 0
-4 22 61 0
4 -22 61 0
-4 -22 -61 0
4 -79 0
22 -79 0
-4 -22 79 0
5 23 -62 0
-5 23 62 0
5 -23 62 0
-5 -23 -62 0
5 -80 0
23 -80 0
-5 -23 80 0
6 24 -63 0
-6 24 63 0
6 -24 63 0
-6 -24 -63 0
6 -81 0
24 -81 0
-6 -24 81 0
7 25 -64 0
-7 25 64 0
7 -25 64 0
-7 -25 -64 0
7 -82 0
25 -82 0
-7 -25 82 0
8 26 -65 0
-8 26 65 0
8 -26 65 0
-8 -26 -65 0
8 -83 0
26 -83 0
-8 -26 83 0
9 27 -66 0
-9 27 66 0
9 -27 66 0
-9 -27 -66 0
9 -84 0
27 -84 0
-9 -27 84 0
10 28 -67 0
-10 28 67 0
10 -28 67 0
-10 -28 -67 0
10 -85 0
28 -85 0
-10 -28 85 0
11 29 -68 0
-11 29 68 0
11 -29 68 0
-11 -29 -68 0
11 -86 0
29 -86 0
-11 -29 86 0
12 30 -69 0
-12 30 69 0
12 -30 69 0
-12 -30 -69 0
12 -87 0
30 -87 0
-12 -30 87 0
13 31 -70 0
-13 31 70 0
13 -31 70 0
-13 -31 -70 0
13 -88 0
31 -88 0
-13 -31 88 0
14 32 -71 0
-14 32 71 0
14 -32 71 0
-14 -32 -71 0
14 -89 0
32 -89 0
-14 -32 89 0
15 33 -72 0
-15 33 72 0
15 -33 72 0
-15 -33 -72 0
15 -90 0
33 -90 0
-15 -33 90 0
16 34 -73 0
-16 34 73 0
16 -34 73 0
-16 -34 -73 0
16 -91 0
34 -91 0
-16 -34 91 0
17 35 -74 0
-17 35 74 0
17 -35 74 0
-17 -35 -74 0
17 -92 0
35 -92 0
-17 -35 92 0
18 36 -75 0
-18 36 75 0
18 -36 75 0
-18 -36 -75 0
18 -93 0
36 -93 0
-18 -36 93 0
56 -112 0
58 -112 0
-56 -58 112 0
56 -113 0
58 -113 0
59 -113 0
-56 -58 -59 113 0
76 -114 0
59 -114 0
-76 -59 114 0
56 -115 0
58 -115 0
59 -115 0
60 -115 0
-56 -58 -59 -60 115 0
76 -116 0
59 -116 0
60 -116 0
-76 -59 -60 116 0
77 -117 0
60 -117 0
-77 -60 117 0
56 -118 0
58 -118 0
59 -118 0
60 -118 0
61 -118 0
-56 -58 -59 -60 -61 118 0
76 -119 0
59 -119 0
60 -119 0
61 -119 0
-76 -59 -60 -61 119 0
77 -120 0
60 -120 0
61 -120 0
-77 -60 -61 120 0
78 -121 0
61 -121 0
-78 -61 121 0
56 -122 0
58 -122 0
59 -122 0
60 -122 0
61 -122 0
62 -122 0
-56 -58 -59 -60 -61 -62 122 0
76 -123 0
59 -123 0
60 -123 0
61 -123 0
62 -123 0
-76 -59 -60 -61 -62 123 0
77 -124 0
60 -124 0
61 -124 0
62 -124 0
-77 -60 -61 -62 124 0
78 -125 0
61 -125 0
62 -125 0
-78 -61 -62 125 0
79 -126 0
62 -126 0
-79 -62 126 0
56 -127 0
58 -127 0
59 -127 0
60 -127 0
61 -127 0
62 -127 0
63 -127 0
-56 -58 -59 -60 -61 -62 -63 127 0
76 -128 0
59 -128 0
60 -128 0
61 -128 0
62 -128 0
63 -128 0
-76 -59 -60 -61 -62 -63 128 0
77 -129 0
60 -129 0
61 -129 0
62 -129 0
63 -129 0
-77 -60 -61 -62 -63 129 0
78 -130 0
61 -130 0
62 -130 0
63 -130 0
-78 -61 -62 -63 130 0
79 -131 0
62 -131 0
63 -131 0
-79 -62 -63 131 0
80 -132 0
63 -132 0
-80 -63 132 0
56 -133 0
58 -133 0
59 -133 0
60 -133 0
61 -133 0
62 -133 0
63 -133 0
64 -133 0
-56 -58 -59 -60 -61 -62 -63 -64 133 0
76 -134 0
59 -134 0
60 -134 0
61 -134 0
62 -134 0
63 -134 0
64 -134 0
-76 -59 -60 -61 -62 -63 -64 134 0
77 -135 0
60 -135 0
61 -135 0
62 -135 0
63 -135 0
64 -135 0
-77 -60 -61 -62 -63 -64 135 0
78 -136 0
61 -136 0
62 -136 0
63 -136 0
64 -136 0
-78 -61 -62 -63 -64 136 0
79 -137 0
62 -137 0
63 -137 0
64 -137 0
-79 -62 -63 -64 137 0
80 -138 0
63 -138 0
64 -138 0
-80 -63 -64 138 0
81 -139 0
64 -139 0
-81 -64 139 0
56 -140 0
58 -140 0
59 -140 0
60 -140 0
61 -140 0
62 -140 0
63 -140 0
64 -140 0
65 -140 0
-56 -58 -59 -60 -61 -62 -63 -64 -65 140 0
76 -141 0
59 -141 0
60 -141 0
61 -141 0
62 -141 0
63 -141 0
64 -141 0
65 -141 0
-76 -59 -60 -61 -62 -63 -64 -65 141 0
77 -142 0
60 -142 0
61 -142 0
62 -142 0
63 -142 0
64 -142 0
65 -142 0
-77 -60 -61 -62 -63 -64 -65 142 0
78 -143 0
61 -143 0
62 -143 0
63 -143 0
64 -143 0
65 -143 0
-78 -61 -62 -63 -64 -65 143 0
79 -144 0
62 -144 0
63 -144 0
64 -144 0
65 -144 0
-79 -62 -63 -64 -65 144 0
80 -145 0
63 -145 0
64 -145 0
65 -145 0
-80 -63 -64 -65 145 0
81 -146 0
64 -146 0
65 -146 0
-81 -64 -65 146 0
82 -147 0
65 -147 0
-82 -65 147 0
56 -148 0
58 -148 0
59 -148 0
60 -148 0
61 -148 0
62 -148 0
63 -148 0
64 -148 0
65 -148 0
66 -148 0
-56 -58 -59 -60 -61 -62 -63 -64 -65 -66 148 0
76 -149 0
59 -149 0
60 -149 0
61 -149 0
62 -149 0
63 -149 0
64 -149 0
65 -149 0
66 -149 0
-76 -59 -60 -61 -62 -63 -64 -65 -66 149 0
77 -150 0
60 -150 0
61 -150 0
62 -150 0
63 -150 0
64 -150 0
65 -150 0
66 -150 0
-77 -60 -61 -62 -63 -64 -65 -66 150 0
78 -151 0
61 -151 0
62 -151 0
63 -151 0
64 -151 0
65 -151 0
66 -151 0
-78 -61 -62 -63 -64 -65 -66 151 0
79 -152 0
62 -152 0
63 -152 0
64 -152 0
65 -152 0
66 -152 0
-79 -62 -63 -64 -65 -66 152 0
80 -153 0
63 -153 0
64 -153 0
65 -153 0
66 -153 0
-80 -63 -64 -65 -66 153 0
81 -154 0
64 -154 0
65 -154 0
66 -154 0
-81 -64 -65 -66 154 0
82 -155 0
65 -155 0
66 -155 0
-82 -65 -66 155 0
83 -156 0
66 -156 0
-83 -66 156 0
56 -157 0
58 -157 0
59 -157 0
60 -157 0
61 -157 0
62 -157 0
63 -157 0
64 -157 0
65 -157 0
66 -157 0
67 -157 0
-56 -58 -59 -60 -61 -62 -63 -64 -65 -66 -67 157 0
76 -158 0
59 -158 0
60 -158 0
61 -158 0
62 -158 0
63 -158 0
64 -158 0
65 -158 0
66 -158 0
67 -158 0
-76 -59 -60 -61 -62 -63 -64 -65 -66 -67 158 0
77 -159 0
60 -159 0
61 -159 0
62 -159 0
63 -159 0
64 -159 0
65 -159 0
66 -159 0
67 -159 0
-77 -60 -61 -62 -63 -64 -65 -66 -67 159 0
78 -160 0
61 -160 0
62 -160 0
63 -160 0
64 -160 0
65 -160 0
66 -160 0
67 -160 0
-78 -61 -62 -63 -64 -65 -66 -67 160 0
79 -161 0
62 -161 0
63 -161 0
64 -161 0
65 -161 0
66 -161 0
67 -161 0
-79 -62 -63 -64 -65 -66 -67 161 0
80 -162 0
63 -162 0
64 -162 0
65 -162 0
66 -162 0
67 -162 0
-80 -63 -64 -65 -66 -67 162 0
81 -163 0
64 -163 0
65 -163 0
66 -163 0
67 -163 0
-81 -64 -65 -66 -67 163 0
82 -164 0
65 -164 0
66 -164 0
67 -164 0
-82 -65 -66 -67 164 0
83 -165 0
66 -165 0
67 -165 0
-83 -66 -67 165 0
84 -166 0
67 -166 0
-84 -67 166 0
56 -167 0
58 -167 0
59 -167 0
60 -167 0
61 -167 0
62 -167 0
63 -167 0
64 -167 0
65 -167 0
66 -167 0
67 -167 0
68 -167 0
-56 -58 -59 -60 -61 -62 -63 -64 -65 -66 -67 -68 167 0
76 -168 0
59 -168 0
60 -168 0
61 -168 0
62 -168 0
63 -168 0
64 -168 0
65 -168 0
66 -168 0
67 -168 0
68 -168 0
-76 -59 -60 -61 -62 -63 -64 -65 -66 -67 -68 168 0
77 -169 0
60 -169 0
61 -169 0
62 -169 0
63 -169 0
64 -169 0
65 -169 0
66 -169 0
67 -169 0
68 -169 0
-77 -60 -61 -62 -63 -64 -65 -66 -67 -68 169 0
78 -170 0
61 -170 0
62 -170 0
63 -170 0
64 -170 0
65 -170 0
66 -170 0
67 -170 0
68 -170 0
-78 -61 -62 -63 -64 -65 -66 -67 -68 170 0
79 -171 0
62 -171 0
63 -171 0
64 -171 0
65 -171 0
66 -171 0
67 -171 0
68 -171 0
-79 -62 -63 -64 -65 -66 -67 -68 171 0
80 -172 0
63 -172 0
64 -172 0
65 -172 0
66 -172 0
67 -172 0
68 -172 0
-80 -63 -64 -65 -66 -67 -68 172 0
81 -173 0
64 -173 0
65 -173 0
66 -173 0
67 -173 0
68 -173 0
-81 -64 -65 -66 -67 -68 173 0
82 -174 0
65 -174 0
66 -174 0
67 -174 0
68 -174 0
-82 -65 -66 -67 -68 174 0
83 -175 0
66 -175 0
67 -175 0
68 -175 0
-83 -66 -67 -68 175 0
84 -176 0
67 -176 0
68 -176 0
-84 -67 -68 176 0
85 -177 0
68 -177 0
-85 -68 177 0
56 -178 0
58 -178 0
59 -178 0
60 -178 0
61 -178 0
62 -178 0
63 -178 0
64 -178 0
65 -178 0
66 -178 0
67 -178 0
68 -178 0
69 -178 0
-56 -58 -59 -60 -61 -62 -63 -64 -65 -66 -67 -68 -69 178 0
76 -179 0
59 -179 0
60 -179 0
61 -179 0
62 -179 0
63 -179 0
64 -179 0
65 -179 0
66 -179 0
67 -179 0
68 -179 0
69 -179 0
-76 -59 -60 -61 -62 -63 -64 -65 -66 -67 -68 -69 179 0
77 -180 0
60 -180 0
61 -180 0
62 -180 0
63 -180 0
64 -180 0
65 -180 0
66 -180 0
67 -180 0
68 -180 0
69 -180 0
-77 -60 -61 -62 -63 -64 -65 -66 -67 -68 -69 180 0
78 -181 0
61 -181 0
62 -181 0
63 -181 0
64 -181 0
65 -181 0
66 -181 0
67 -181 0
68 -181 0
69 -181 0
-78 -61 -62 -63 -64 -65 -66 -67 -68 -69 181 0
79 -182 0
62 -182 0
63 -182 0
64 -182 0
65 -182 0
66 -182 0
67 -182 0
68 -182 0
69 -182 0
-79 -62 -63 -64 -65 -66 -67 -68 -69 182 0
80 -183 0
63 -183 0
64 -183 0
65 -183 0
66 -183 0
67 -183 0
68 -183 0
69 -183 0
-80 -63 -64 -65 -66 -67 -68 -69 183 0
81 -184 0
64 -184 0
65 -184 0
66 -184 0
67 -184 0
68 -184 0
69 -184 0
-81 -64 -65 -66 -67 -68 -69 184 0
82 -185 0
65 -185 0
66 -185 0
67 -185 0
68 -185 0
69 -185 0
-82 -65 -66 -67 -68 -69 185 0
83 -186 0
66 -186 0
67 -186 0
68 -186 0
69 -186 0
-83 -66 -67 -68 -69 186 0
84 -187 0
67 -187 0
68 -187 0
69 -187 0
-84 -67 -68 -69 187 0
85 -188 0
68 -188 0
69 -188 0
-85 -68 -69 188 0
86 -189 0
69 -189 0
-86 -69 189 0
56 -190 0
58 -190 0
59 -190 0
60 -190 0
61 -190 0
62 -190 0
63 -190 0
64 -190 0
65 -190 0
66 -190 0
67 -190 0
68 -190 0
69 -190 0
70 -190 0
-56 -58 -59 -60 -61 -62 -63 -64 -65 -66 -67 -68 -69 -70 190 0
76 -191 0
59 -191 0
60 -191 0
61 -191 0
62 -191 0
63 -191 0
64 -191 0
65 -191 0
66 -191 0
67 -191 0
68 -191 0
69 -191 0
70 -191 0
-76 -59 -60 -61 -62 -63 -64 -65 -66 -67 -68 -69 -70 191 0
77 -192 0
60 -192 0
61 -192 0
62 -192 0
63 -192 0
64 -192 0
65 -192 0
66 -192 0
67 -192 0
68 -192 0
69 -192 0
70 -192 0
-77 -60 -61 -62 -63 -64 -65 -66 -67 -68 -69 -70 192 0
78 -193 0
61 -193 0
62 -193 0
63 -193 0
64 -193 0
65 -193 0
66 -193 0
67 -193 0
68 -193 0
69 -193 0
70 -193 0
-78 -61 -62 -63 -64 -65 -66 -67 -68 -69 -70 193 0
79 -194 0
62 -194 0
63 -194 0
64 -194 0
65 -194 0
66 -194 0
67 -194 0
68 -194 0
69 -194 0
70 -194 0
-79 -62 -63 -64 -65 -66 -67 -68 -69 -70 194 0
80 -195 0
63 -195 0
64 -195 0
65 -195 0
66 -195 0
67 -195 0
68 -195 0
69 -195 0
70 -195 0
-80 -63 -64 -65 -66 -67 -68 -69 -70 195 0
81 -196 0
64 -196 0
65 -196 0
66 -196 0
67 -196 0
68 -196 0
69 -196 0
70 -196 0
-81 -64 -65 -66 -67 -68 -69 -70 196 0
82 -197 0
65 -197 0
66 -197 0
67 -197 0
68 -197 0
69 -197 0
70 -197 0
-82 -65 -66 -67 -68 -69 -70 197 0
83 -198 0
66 -198 0
67 -198 0
68 -198 0
69 -198 0
70 -198 0
-83 -66 -67 -68 -69 -70 198 0
84 -199 0
67 -199 0
68 -199 0
69 -199 0
70 -199 0
-84 -67 -68 -69 -70 199 0
85 -200 0
68 -200 0
69 -200 0
70 -200 0
-85 -68 -69 -70 200 0
86 -201 0
69 -201 0
70 -201 0
-86 -69 -70 201 0
87 -202 0
70 -202 0
-87 -70 202 0
56 -203 0
58 -203 0
59 -203 0
60 -203 0
61 -203 0
62 -203 0
63 -203 0
64 -203 0
65 -203 0
66 -203 0
67 -203 0
68 -203 0
69 -203 0
70 -203 0
71 -203 0
-56 -58 -59 -60 -61 -62 -63 -64 -65 -66 -67 -68 -69 -70 -71 203 0
76 -204 0
59 -204 0
60 -204 0
61 -204 0
62 -204 0
63 -204 0
64 -204 0
65 -204 0
66 -204 0
67 -204 0
68 -204 0
69 -204 0
70 -204 0
71 -204 0
-76 -59 -60 -61 -62 -63 -64 -65 -66 -67 -68 -69 -70 -71 204 0
77 -205 0
60 -205 0
61 -205 0
62 -205 0
63 -205 0
64 -205 0
65 -205 0
66 -205 0
67 -205 0
68 -205 0
69 -205 0
70 -205 0
71 -205 0
-77 -60 -61 -62 -63 -64 -65 -66 -67 -68 -69 -70 -71 205 0
78 -206 0
61 -206 0
62 -206 0
63 -206 0
64 -206 0
65 -206 0
66 -206 0
67 -206 0
68 -206 0
69 -206 0
70 -206 0
71 -206 0
-78 -61 -62 -63 -64 -65 -66 -67 -68 -69 -70 -71 206 0
79 -207 0
62 -207 0
63 -207 0
64 -207 0
65 -207 0
66 -207 0
67 -207 0
68 -207 0
69 -207 0
70 -207 0
71 -207 0
-79 -62 -63 -64 -65 -66 -67 -68 -69 -70 -71 207 0
80 -208 0
63 -208 0
64 -208 0
65 -208 0
66 -208 0
67 -208 0
68 -208 0
69 -208 0
70 -208 0
71 -208 0
-80 -63 -64 -65 -66 -67 -68 -69 -70 -71 208 0
81 -209 0
64 -209 0
65 -209 0
66 -209 0
67 -209 0
68 -209 0
69 -209 0
70 -209 0
71 -209 0
-81 -64 -65 -66 -67 -68 -69 -70 -71 209 0
82 -210 0
65 -210 0
66 -210 0
67 -210 0
68 -210 0
69 -210 0
70 -210 0
71 -210 0
-82 -65 -66 -67 -68 -69 -70 -71 210 0
83 -211 0
66 -211 0
67 -211 0
68 -211 0
69 -211 0
70 -211 0
71 -211 0
-83 -66 -67 -68 -69 -70 -71 211 0
84 -212 0
67 -212 0
68 -212 0
69 -212 0
70 -212 0
71 -212 0
-84 -67 -68 -69 -70 -71 212 0
85 -213 0
68 -213 0
69 -213 0
70 -213 0
71 -213 0
-85 -68 -69 -70 -71 213 0
86 -214 0
69 -214 0
70 -214 0
71 -214 0
-86 -69 -70 -71 214 0
87 -215 0
70 -215 0
71 -215 0
-87 -70 -71 215 0
88 -216 0
71 -216 0
-88 -71 216 0
56 -217 0
58 -217 0
59 -217 0
60 -217 0
61 -217 0
62 -217 0
63 -217 0
64 -217 0
65 -217 0
66 -217 0
67 -217 0
68 -217 0
69 -217 0
70 -217 0
71 -217 0
72 -217 0
-56 -58 -59 -60 -61 -62 -63 -64 -65 -66 -67 -68 -69 -70 -71 -72 217 0
76 -218 0
59 -218 0
60 -218 0
61 -218 0
62 -218 0
63 -218 0
64 -218 0
65 -218 0
66 -218 0
67 -218 0
68 -218 0
69 -218 0
70 -218 0
71 -218 0
72 -218 0
-76 -59 -60 -61 -62 -63 -64 -65 -66 -67 -68 -69 -70 -71 -72 218 0
77 -219 0
60 -219 0
61 -219 0
62 -219 0
63 -219 0
64 -219 0
65 -219 0
66 -219 0
67 -219 0
68 -219 0
69 -219 0
70 -219 0
71 -219 0
72 -219 0
-77 -60 -61 -62 -63 -64 -65 -66 -67 -68 -69 -70 -71 -72 219 0
78 -220 0
61 -220 0
62 -220 0
63 -220 0
64 -220 0
65 -220 0
66 -220 0
67 -220 0
68 -220 0
69 -220 0
70 -220 0
71 -220 0
72 -220 0
-78 -61 -62 -63 -64 -65 -66 -67 -68 -69 -70 -71 -72 220 0
79 -221 0
62 -221 0
63 -221 0
64 -221 0
65 -221 0
66 -221 0
67 -221 0
68 -221 0
69 -221 0
70 -221 0
71 -221 0
72 -221 0
-79 -62 -63 -64 -65 -66 -67 -68 -69 -70 -71 -72 221 0
80 -222 0
63 -222 0
64 -222 0
65 -222 0
66 -222 0
67 -222 0
68 -222 0
69 -222 0
70 -222 0
71 -222 0
72 -222 0
-80 -63 -64 -65 -66 -67 -68 -69 -70 -71 -72 222 0
81 -223 0
64 -223 0
65 -223 0
66 -223 0
67 -223 0
68 -223 0
69 -223 0
70 -223 0
71 -223 0
72 -223 0
-81 -64 -65 -66 -67 -68 -69 -70 -71 -72 223 0
82 -224 0
65 -224 0
66 -224 0
67 -224 0
68 -224 0
69 -224 0
70 -224 0
71 -224 0
72 -224 0
-82 -65 -66 -67 -68 -69 -70 -71 -72 224 0
83 -225 0
66 -225 0
67 -225 0
68 -225 0
69 -225 0
70 -225 0
71 -225 0
72 -225 0
-83 -66 -67 -68 -69 -70 -71 -72 225 0
84 -226 0
67 -226 0
68 -226 0
69 -226 0
70 -226 0
71 -226 0
72 -226 0
-84 -67 -68 -69 -70 -71 -72 226 0
85 -227 0
68 -227 0
69 -227 0
70 -227 0
71 -227 0
72 -227 0
-85 -68 -69 -70 -71 -72 227 0
86 -228 0
69 -228 0
70 -228 0
71 -228 0
72 -228 0
-86 -69 -70 -71 -72 228 0
87 -229 0
70 -229 0
71 -229 0
72 -229 0
-87 -70 -71 -72 229 0
88 -230 0
71 -230 0
72 -230 0
-88 -71 -72 230 0
89 -231 0
72 -231 0
-89 -72 231 0
56 -232 0
58 -232 0
59 -232 0
60 -232 0
61 -232 0
62 -232 0
63 -232 0
64 -232 0
65 -232 0
66 -232 0
67 -232 0
68 -232 0
69 -232 0
70 -232 0
71 -232 0
72 -232 0
73 -232 0
-56 -58 -59 -60 -61 -62 -63 -64 -65 -66 -67 -68 -69 -70 -71 -72 -73 232 0
76 -233 0
59 -233 0
60 -233 0
61 -233 0
62 -233 0
63 -233 0
64 -233 0
65 -233 0
66 -233 0
67 -233 0
68 -233 0
69 -233 0
70 -233 0
71 -233 0
72 -233 0
73 -233 0
-76 -59 -60 -61 -62 -63 -64 -65 -66 -67 -68 -69 -70 -71 -72 -73 233 0
77 -234 0
60 -234 0
61 -234 0
62 -234 0
63 -234 0
64 -234 0
65 -234 0
66 -234 0
67 -234 0
68 -234 0
69 -234 0
70 -234 0
71 -234 0
72 -234 0
73 -234 0
-77 -60 -61 -62 -63 -64 -65 -66 -67 -68 -69 -70 -71 -72 -73 234 0
78 -235 0
61 -235 0
62 -235 0
63 -235 0
64 -235 0
65 -235 0
66 -235 0
67 -235 0
68 -235 0
69 -235 0
70 -235 0
71 -235 0
72 -235 0
73 -235 0
-78 -61 -62 -63 -64 -65 -66 -67 -68 -69 -70 -71 -72 -73 235 0
79 -236 0
62 -236 0
63 -236 0
64 -236 0
65 -236 0
66 -236 0
67 -236 0
68 -236 0
69 -236 0
70 -236 0
71 -236 0
72 -236 0
73 -236 0
-79 -62 -63 -64 -65 -66 -67 -68 -69 -70 -71 -72 -73 236 0
80 -237 0
63 -237 0
64 -237 0
65 -237 0
66 -237 0
67 -237 0
68 -237 0
69 -237 0
70 -237 0
71 -237 0
72 -237 0
73 -237 0
-80 -63 -64 -65 -66 -67 -68 -69 -70 -71 -72 -73 237 0
81 -238 0
64 -238 0
65 -238 0
66 -238 0
67 -238 0
68 -238 0
69 -238 0
70 -238 0
71 -238 0
72 -238 0
73 -238 0
-81 -64 -65 -66 -67 -68 -69 -70 -71 -72 -73 238 0
82 -239 0
65 -239 0
66 -239 0
67 -239 0
68 -239 0
69 -239 0
70 -239 0
71 -239 0
72 -239 0
73 -239 0
-82 -65 -66 -67 -68 -69 -70 -71 -72 -73 239 0
83 -240 0
66 -240 0
67 -240 0
68 -240 0
69 -240 0
70 -240 0
71 -240 0
72 -240 0
73 -240 0
-83 -66 -67 -68 -69 -70 -71 -72 -73 240 0
84 -241 0
67 -241 0
68 -241 0
69 -241 0
70 -241 0
71 -241 0
72 -241 0
73 -241 0
-84 -67 -68 -69 -70 -71 -72 -73 241 0
85 -242 0
68 -242 0
69 -242 0
70 -242 0
71 -242 0
72 -242 0
73 -242 0
-85 -68 -69 -70 -71 -72 -73 242 0
86 -243 0
69 -243 0
70 -243 0
71 -243 0
72 -243 0
73 -243 0
-86 -69 -70 -71 -72 -73 243 0
87 -244 0
70 -244 0
71 -244 0
72 -244 0
73 -244 0
-87 -70 -71 -72 -73 244 0
88 -245 0
71 -245 0
72 -245 0
73 -245 0
-88 -71 -72 -73 245 0
89 -246 0
72 -246 0
73 -246 0
-89 -72 -73 246 0
90 -247 0
73 -247 0
-90 -73 247 0
56 -248 0
58 -248 0
59 -248 0
60 -248 0
61 -248 0
62 -248 0
63 -248 0
64 -248 0
65 -248 0
66 -248 0
67 -248 0
68 -248 0
69 -248 0
70 -248 0
71 -248 0
72 -248 0
73 -248 0
74 -248 0
-56 -58 -59 -60 -61 -62 -63 -64 -65 -66 -67 -68 -69 -70 -71 -72 -73 -74 248 0
76 -249 0
59 -249 0
60 -249 0
61 -249 0
62 -249 0
63 -249 0
64 -249 0
65 -249 0
66 -249 0
67 -249 0
68 -249 0
69 -249 0
70 -249 0
71 -249 0
72 -249 0
73 -249 0
74 -249 0
-76 -59 -60 -61 -62 -63 -64 -65 -66 -67 -68 -69 -70 -71 -72 -73 -74 249 0
77 -250 0
60 -250 0
61 -250 0
62 -250 0
63 -250 0
64 -250 0
65 -250 0
66 -250 0
67 -250 0
68 -250 0
69 -250 0
70 -250 0
71 -250 0
72 -250 0
73 -250 0
74 -250 0
-77 -60 -61 -62 -63 -64 -65 -66 -67 -68 -69 -70 -71 -72 -73 -74 250 0
78 -251 0
61 -251 0
62 -251 0
63 -251 0
64 -251 0
65 -251 0
66 -251 0
67 -251 0
68 -251 0
69 -251 0
70 -251 0
71 -251 0
72 -251 0
73 -251 0
74 -251 0
-78 -61 -62 -63 -64 -65 -66 -67 -68 -69 -70 -71 -72 -73 -74 251 0
79 -252 0
62 -252 0
63 -252 0
64 -252 0
65 -252 0
66 -252 0
67 -252 0
68 -252 0
69 -252 0
70 -252 0
71 -252 0
72 -252 0
73 -252 0
74 -252 0
-79 -62 -63 -64 -65 -66 -67 -68 -69 -70 -71 -72 -73 -74 252 0
80 -253 0
63 -253 0
64 -253 0
65 -253 0
66 -253 0
67 -253 0
68 -253 0
69 -253 0
70 -253 0
71 -253 0
72 -253 0
73 -253 0
74 -253 0
-80 -63 -64 -65 -66 -67 -68 -69 -70 -71 -72 -73 -74 253 0
81 -254 0
64 -254 0
65 -254 0
66 -254 0
67 -254 0
68 -254 0
69 -254 0
70 -254 0
71 -254 0
72 -254 0
73 -254 0
74 -254 0
-81 -64 -65 -66 -67 -68 -69 -70 -71 -72 -73 -74 254 0
82 -255 0
65 -255 0
66 -255 0
67 -255 0
68 -255 0
69 -255 0
70 -255 0
71 -255 0
72 -255 0
73 -255 0
74 -255 0
-82 -65 -66 -67 -68 -69 -70 -71 -72 -73 -74 255 0
83 -256 0
66 -256 0
67 -256 0
68 -256 0
69 -256 0
70 -256 0
71 -256 0
72 -256 0
73 -256 0
74 -256 0
-83 -66 -67 -68 -69 -70 -71 -72 -73 -74 256 0
84 -257 0
67 -257 0
68 -257 0
69 -257 0
70 -257 0
71 -257 0
72 -257 0
73 -257 0
74 -257 0
-84 -67 -68 -69 -70 -71 -72 -73 -74 257 0
85 -258 0
68 -258 0
69 -258 0
70 -258 0
71 -258 0
72 -258 0
73 -258 0
74 -258 0
-85 -68 -69 -70 -71 -72 -73 -74 258 0
86 -259 0
69 -259 0
70 -259 0
71 -259 0
72 -259 0
73 -259 0
74 -259 0
-86 -69 -70 -71 -72 -73 -74 259 0
87 -260 0
70 -260 0
71 -260 0
72 -260 0
73 -260 0
74 -260 0
-87 -70 -71 -72 -73 -74 260 0
88 -261 0
71 -261 0
72 -261 0
73 -261 0
74 -261 0
-88 -71 -72 -73 -74 261 0
89 -262 0
72 -262 0
73 -262 0
74 -262 0
-89 -72 -73 -74 262 0
90 -263 0
73 -263 0
74 -263 0
-90 -73 -74 263 0
91 -264 0
74 -264 0
-91 -74 264 0
56 -265 0
58 -265 0
59 -265 0
60 -265 0
61 -265 0
62 -265 0
63 -265 0
64 -265 0
65 -265 0
66 -265 0
67 -265 0
68 -265 0
69 -265 0
70 -265 0
71 -265 0
72 -265 0
73 -265 0
74 -265 0
75 -265 0
-56 -58 -59 -60 -61 -62 -63 -64 -65 -66 -67 -68 -69 -70 -71 -72 -73 -74 -75 265 0
76 -266 0
59 -266 0
60 -266 0
61 -266 0
62 -266 0
63 -266 0
64 -266 0
65 -266 0
66 -266 0
67 -266 0
68 -266 0
69 -266 0
70 -266 0
71 -266 0
72 -266 0
73 -266 0
74 -266 0
75 -266 0
-76 -59 -60 -61 -62 -63 -64 -65 -66 -67 -68 -69 -70 -71 -72 -73 -74 -75 266 0
77 -267 0
60 -267 0
61 -267 0
62 -267 0
63 -267 0
64 -267 0
65 -267 0
66 -267 0
67 -267 0
68 -267 0
69 -267 0
70 -267 0
71 -267 0
72 -267 0
73 -267 0
74 -267 0
75 -267 0
-77 -60 -61 -62 -63 -64 -65 -66 -67 -68 -69 -70 -71 -72 -73 -74 -75 267 0
78 -268 0
61 -268 0
62 -268 0
63 -268 0
64 -268 0
65 -268 0
66 -268 0
67 -268 0
68 -268 0
69 -268 0
70 -268 0
71 -268 0
72 -268 0
73 -268 0
74 -268 0
75 -268 0
-78 -61 -62 -63 -64 -65 -66 -67 -68 -69 -70 -71 -72 -73 -74 -75 268 0
79 -269 0
62 -269 0
63 -269 0
64 -269 0
65 -269 0
66 -269 0
67 -269 0
68 -269 0
69 -269 0
70 -269 0
71 -269 0
72 -269 0
73 -269 0
74 -269 0
75 -269 0
-79 -62 -63 -64 -65 -66 -67 -68 -69 -70 -71 -72 -73 -74 -75 269 0
80 -270 0
63 -270 0
64 -270 0
65 -270 0
66 -270 0
67 -270 0
68 -270 0
69 -270 0
70 -270 0
71 -270 0
72 -270 0
73 -270 0
74 -270 0
75 -270 0
-80 -63 -64 -65 -66 -67 -68 -69 -70 -71 -72 -73 -74 -75 270 0
81 -271 0
64 -271 0
65 -271 0
66 -271 0
67 -271 0
68 -271 0
69 -271 0
70 -271 0
71 -271 0
72 -271 0
73 -271 0
74 -271 0
75 -271 0
-81 -64 -65 -66 -67 -68 -69 -70 -71 -72 -73 -74 -75 271 0
82 -272 0
65 -272 0
66 -272 0
67 -272 0
68 -272 0
69 -272 0
70 -272 0
71 -272 0
72 -272 0
73 -272 0
74 -272 0
75 -272 0
-82 -65 -66 -67 -68 -69 -70 -71 -72 -73 -74 -75 272 0
83 -273 0
66 -273 0
67 -273 0
68 -273 0
69 -273 0
70 -273 0
71 -273 0
72 -273 0
73 -273 0
74 -273 0
75 -273 0
-83 -66 -67 -68 -69 -70 -71 -72 -73 -74 -75 273 0
84 -274 0
67 -274 0
68 -274 0
69 -274 0
70 -274 0
71 -274 0
72 -274 0
73 -274 0
74 -274 0
75 -274 0
-84 -67 -68 -69 -70 -71 -72 -73 -74 -75 274 0
85 -275 0
68 -275 0
69 -275 0
70 -275 0
71 -275 0
72 -275 0
73 -275 0
74 -275 0
75 -275 0
-85 -68 -69 -70 -71 -72 -73 -74 -75 275 0
86 -276 0
69 -276 0
70 -276 0
71 -276 0
72 -276 0
73 -276 0
74 -276 0
75 -276 0
-86 -69 -70 -71 -72 -73 -74 -75 276 0
87 -277 0
70 -277 0
71 -277 0
72 -277 0
73 -277 0
74 -277 0
75 -277 0
-87 -70 -71 -72 -73 -74 -75 277 0
88 -278 0
71 -278 0
72 -278 0
73 -278 0
74 -278 0
75 -278 0
-88 -71 -72 -73 -74 -75 278 0
89 -279 0
72 -279 0
73 -279 0
74 -279 0
75 -279 0
-89 -72 -73 -74 -75 279 0
90 -280 0
73 -280 0
74 -280 0
75 -280 0
-90 -73 -74 -75 280 0
91 -281 0
74 -281 0
75 -281 0
-91 -74 -75 281 0
92 -282 0
75 -282 0
-92 -75 282 0
-76 94 0
-112 94 0
76 112 -94 0
-77 95 0
-113 95 0
-114 95 0
77 113 114 -95 0
-78 96 0
-115 96 0
-116 96 0
-117 96 0
78 115 116 117 -96 0
-79 97 0
-118 97 0
-119 97 0
-120 97 0
-121 97 0
79 118 119 120 121 -97 0
-80 98 0
-122 98 0
-123 98 0
-124 98 0
-125 98 0
-126 98 0
80 122 123 124 125 126 -98 0
-81 99 0
-127 99 0
-128 99 0
-129 99 0
-130 99 0
-131 99 0
-132 99 0
81 127 128 129 130 131 132 -99 0
-82 100 0
-133 100 0
-134 100 0
-135 100 0
-136 100 0
-137 100 0
-138 100 0
-139 100 0
82 133 134 135 136 137 138 139 -100 0
-83 101 0
-140 101 0
-141 101 0
-142 101 0
-143 101 0
-144 101 0
-145 101 0
-146 101 0
-147 101 0
83 140 141 142 143 144 145 146 147 -101 0
-84 102 0
-148 102 0
-149 102 0
-150 102 0
-151 102 0
-152 102 0
-153 102 0
-154 102 0
-155 102 0
-156 102 0
84 148 149 150 151 152 153 154 155 156 -102 0
-85 103 0
-157 103 0
-158 103 0
-159 103 0
-160 103 0
-161 103 0
-162 103 0
-163 103 0
-164 103 0
-165 103 0
-166 103 0
85 157 158 159 160 161 162 163 164 165 166 -103 0
-86 104 0
-167 104 0
-168 104 0
-169 104 0
-170 104 0
-171 104 0
-172 104 0
-173 104 0
-174 104 0
-175 104 0
-176 104 0
-177 104 0
86 167 168 169 170 171 172 173 174 175 176 177 -104 0
-87 105 0
-178 105 0
-179 105 0
-180 105 0
-181 105 0
-182 105 0
-183 105 0
-184 105 0
-185 105 0
-186 105 0
-187 105 0
-188 105 0
-189 105 0
87 178 179 180 181 182 183 184 185 186 187 188 189 -105 0
-88 106 0
-190 106 0
-191 106 0
-192 106 0
-193 106 0
-194 106 0
-195 106 0
-196 106 0
-197 106 0
-198 106 0
-199 106 0
-200 106 0
-201 106 0
-202 106 0
88 190 191 192 193 194 195 196 197 198 199 200 201 202 -106 0
-89 107 0
-203 107 0
-204 107 0
-205 107 0
-206 107 0
-207 107 0
-208 107 0
-209 107 0
-210 107 0
-211 107 0
-212 107 0
-213 107 0
-214 107 0
-215 107 0
-216 107 0
89 203 204 205 206 207 208 209 210 211 212 213 214 215 216 -107 0
-90 108 0
-217 108 0
-218 108 0
-219 108 0
-220 108 0
-221 108 0
-222 108 0
-223 108 0
-224 108 0
-225 108 0
-226 108 0
-227 108 0
-228 108 0
-229 108 0
-230 108 0
-231 108 0
90 217 218 219 220 221 222 223 224 225 226 227 228 229 230 231 -108 0
-91 109 0
-232 109 0
-233 109 0
-234 109 0
-235 109 0
-236 109 0
-237 109 0
-238 109 0
-239 109 0
-240 109 0
-241 109 0
-242 109 0
-243 109 0
-244 109 0
-245 109 0
-246 109 0
-247 109 0
91 232 233 234 235 236 237 238 239 240 241 242 243 244 245 246 247 -109 0
-92 110 0
-248 110 0
-249 110 0
-250 110 0
-251 110 0
-252 110 0
-253 110 0
-254 110 0
-255 110 0
-256 110 0
-257 110 0
-258 110 0
-259 110 0
-260 110 0
-261 110 0
-262 110 0
-263 110 0
-264 110 0
92 248 249 250 251 252 253 254 255 256 257 258 259 260 261 262 263 264 -110 0
-93 111 0
-265 111 0
-266 111 0
-267 111 0
-268 111 0
-269 111 0
-270 111 0
-271 111 0
-272 111 0
-273 111 0
-274 111 0
-275 111 0
-276 111 0
-277 111 0
-278 111 0
-279 111 0
-280 111 0
-281 111 0
-282 111 0
93 265 266 267 268 269 270 271 272 273 274 275 276 277 278 279 280 281 282 -111 0
58 56 -37 0
-58 56 37 0
58 -56 37 0
-58 -56 -37 0
59 94 -38 0
-59 94 38 0
59 -94 38 0
-59 -94 -38 0
60 95 -39 0
-60 95 39 0
60 -95 39 0
-60 -95 -39 0
61 96 -40 0
-61 96 40 0
61 -96 40 0
-61 -96 -40 0
62 97 -41 0
-62 97 41 0
62 -97 41 0
-62 -97 -41 0
63 98 -42 0
-63 98 42 0
63 -98 42 0
-63 -98 -42 0
64 99 -43 0
-64 99 43 0
64 -99 43 0
-64 -99 -43 0
65 100 -44 0
-65 100 44 0
65 -100 44 0
-65 -100 -44 0
66 101 -45 0
-66 101 45 0
66 -101 45 0
-66 -101 -45 0
67 102 -46 0
-67 102 46 0
67 -102 46 0
-67 -102 -46 0
68 103 -47 0
-68 103 47 0
68 -103 47 0
-68 -103 -47 0
69 104 -48 0
-69 104 48 0
69 -104 48 0
-69 -104 -48 0
70 105 -49 0
-70 105 49 0
70 -105 49 0
-70 -105 -49 0
71 106 -50 0
-71 106 50 0
71 -106 50 0
-71 -106 -50 0
72 107 -51 0
-72 107 51 0
72 -107 51 0
-72 -107 -51 0
73 108 -52 0
-73 108 52 0
73 -108 52 0
-73 -108 -52 0
74 109 -53 0
-74 109 53 0
74 -109 53 0
-74 -109 -53 0
75 110 -54 0
-75 110 54 0
75 -110 54 0
-75 -110 -54 0
111 -55 0
-111 55 0
